c Circuit-CNF generated by TG-PRO v1.0 (c) Huan Chen and Joao Marques-Silva
p cnf 486 1024
1 2 0
-1 -2 0
3 4 0
-3 -4 0
-5 6 0
-5 7 0
5 -6 -7 0
-8 9 0
-8 10 0
8 -9 -10 0
-11 12 0
-11 13 0
11 -12 -13 0
-14 15 0
-14 16 0
14 -15 -16 0
17 18 0
-17 -18 0
19 20 0
-19 -20 0
21 22 0
-21 -22 0
-23 24 0
-23 25 0
23 -24 -25 0
26 27 0
-26 -27 0
28 29 0
-28 -29 0
30 31 0
-30 -31 0
32 33 0
-32 -33 0
34 35 0
-34 -35 0
36 37 0
-36 -37 0
38 39 0
-38 -39 0
40 41 0
-40 -41 0
42 43 0
-42 -43 0
44 45 0
-44 -45 0
46 47 0
-46 -47 0
48 49 0
-48 -49 0
50 51 0
-50 -51 0
-52 53 0
-52 54 0
52 -53 -54 0
55 56 0
-55 -56 0
-57 58 0
-57 59 0
57 -58 -59 0
60 61 0
-60 -61 0
-62 63 0
-62 64 0
62 -63 -64 0
65 66 0
-65 -66 0
67 68 0
-67 -68 0
69 70 0
-69 -70 0
71 72 0
-71 -72 0
73 74 0
-73 -74 0
75 76 0
-75 -76 0
77 78 0
-77 -78 0
79 80 0
-79 -80 0
81 82 0
-81 -82 0
83 84 0
-83 -84 0
85 86 0
-85 -86 0
87 88 0
-87 -88 0
89 90 0
-89 -90 0
91 92 0
-91 -92 0
93 94 0
-93 -94 0
63 95 0
-63 -95 0
96 97 0
-96 -97 0
98 99 0
-98 -99 0
100 101 0
-100 -101 0
102 103 0
-102 -103 0
104 105 0
-104 -105 0
106 107 0
-106 -107 0
108 109 0
-108 -109 0
110 111 0
-110 -111 0
112 113 0
-112 -113 0
114 115 0
-114 -115 0
2 116 0
-2 -116 0
4 117 0
-4 -117 0
118 119 0
-118 -119 0
120 121 0
-120 -121 0
122 123 0
-122 -123 0
124 125 0
-124 -125 0
126 127 0
-126 -127 0
128 129 0
-128 -129 0
130 131 0
-130 -131 0
132 133 0
-132 -133 0
134 135 0
-134 -135 0
136 137 0
-136 -137 0
138 139 0
-138 -139 0
140 141 0
-140 -141 0
142 143 0
-142 -143 0
144 145 0
-144 -145 0
146 147 0
-146 -147 0
148 93 0
-148 -93 0
149 98 0
-149 -98 0
150 100 0
-150 -100 0
151 102 0
-151 -102 0
152 104 0
-152 -104 0
153 106 0
-153 -106 0
154 108 0
-154 -108 0
155 110 0
-155 -110 0
156 112 0
-156 -112 0
157 114 0
-157 -114 0
158 118 0
-158 -118 0
159 120 0
-159 -120 0
160 122 0
-160 -122 0
161 124 0
-161 -124 0
162 126 0
-162 -126 0
163 128 0
-163 -128 0
164 130 0
-164 -130 0
165 132 0
-165 -132 0
166 134 0
-166 -134 0
167 136 0
-167 -136 0
168 138 0
-168 -138 0
169 140 0
-169 -140 0
170 142 0
-170 -142 0
171 144 0
-171 -144 0
172 146 0
-172 -146 0
173 149 0
-173 -149 0
174 149 0
-174 -149 0
175 149 0
-175 -149 0
176 149 0
-176 -149 0
177 149 0
-177 -149 0
178 149 0
-178 -149 0
179 149 0
-179 -149 0
180 153 0
-180 -153 0
181 154 0
-181 -154 0
182 155 0
-182 -155 0
183 156 0
-183 -156 0
184 157 0
-184 -157 0
-185 186 0
-185 157 0
185 -186 -157 0
187 185 0
-187 -185 0
-188 173 0
-188 169 0
188 -173 -169 0
189 188 0
-189 -188 0
190 188 0
-190 -188 0
-191 174 0
-191 159 0
191 -174 -159 0
192 191 0
-192 -191 0
193 191 0
-193 -191 0
-194 175 0
-194 162 0
194 -175 -162 0
195 194 0
-195 -194 0
196 194 0
-196 -194 0
-197 176 0
-197 172 0
197 -176 -172 0
198 197 0
-198 -197 0
-199 177 0
-199 161 0
199 -177 -161 0
200 199 0
-200 -199 0
-201 178 0
-201 163 0
201 -178 -163 0
202 201 0
-202 -201 0
-203 179 0
-203 165 0
203 -179 -165 0
204 203 0
-204 -203 0
205 187 0
-205 -187 0
206 189 0
-206 -189 0
207 190 0
-207 -190 0
208 192 0
-208 -192 0
209 193 0
-209 -193 0
210 195 0
-210 -195 0
211 196 0
-211 -196 0
6 198 0
-6 -198 0
9 200 0
-9 -200 0
12 202 0
-12 -202 0
15 204 0
-15 -204 0
212 205 0
-212 -205 0
213 -214 0
213 -215 0
-213 214 215 0
216 213 0
-216 -213 0
217 -218 0
217 -219 0
-217 218 219 0
220 217 0
-220 -217 0
221 206 0
-221 -206 0
222 208 0
-222 -208 0
223 210 0
-223 -210 0
24 212 0
-24 -212 0
224 216 0
-224 -216 0
225 220 0
-225 -220 0
226 221 0
-226 -221 0
-18 207 0
-18 227 0
18 -207 -227 0
228 222 0
-228 -222 0
-20 209 0
-20 229 0
20 -209 -229 0
230 223 0
-230 -223 0
-22 211 0
-22 231 0
22 -211 -231 0
232 224 0
-232 -224 0
233 225 0
-233 -225 0
234 226 0
-234 -226 0
235 228 0
-235 -228 0
236 230 0
-236 -230 0
237 232 0
-237 -232 0
238 233 0
-238 -233 0
239 237 0
-239 -237 0
240 238 0
-240 -238 0
-27 239 0
-27 241 0
27 -239 -241 0
242 27 0
-242 -27 0
-29 240 0
-29 243 0
29 -240 -243 0
244 29 0
-244 -29 0
245 242 0
-245 -242 0
246 244 0
-246 -244 0
247 245 0
-247 -245 0
248 246 0
-248 -246 0
249 247 0
-249 -247 0
250 248 0
-250 -248 0
251 249 0
-251 -249 0
252 250 0
-252 -250 0
253 251 0
-253 -251 0
254 252 0
-254 -252 0
255 253 0
-255 -253 0
256 255 0
-256 -255 0
-257 254 0
-257 167 0
257 -254 -167 0
258 257 0
-258 -257 0
259 257 0
-259 -257 0
-260 261 0
-260 171 0
260 -261 -171 0
262 260 0
-262 -260 0
263 260 0
-263 -260 0
264 258 0
-264 -258 0
265 259 0
-265 -259 0
266 262 0
-266 -262 0
267 263 0
-267 -263 0
-268 256 0
-268 160 0
268 -256 -160 0
269 268 0
-269 -268 0
270 268 0
-270 -268 0
-271 272 0
-271 168 0
271 -272 -168 0
273 271 0
-273 -271 0
274 271 0
-274 -271 0
275 264 0
-275 -264 0
276 266 0
-276 -266 0
277 269 0
-277 -269 0
278 270 0
-278 -270 0
279 273 0
-279 -273 0
280 274 0
-280 -274 0
281 275 0
-281 -275 0
-31 265 0
-31 282 0
31 -265 -282 0
64 276 0
-64 -276 0
-33 267 0
-33 283 0
33 -267 -283 0
284 277 0
-284 -277 0
285 279 0
-285 -279 0
286 281 0
-286 -281 0
59 64 0
-59 -64 0
287 284 0
-287 -284 0
-35 278 0
-35 288 0
35 -278 -288 0
289 285 0
-289 -285 0
-37 280 0
-37 290 0
37 -280 -290 0
291 286 0
-291 -286 0
-292 63 0
-292 64 0
292 -63 -64 0
92 292 0
-92 -292 0
293 287 0
-293 -287 0
294 289 0
-294 -289 0
295 291 0
-295 -291 0
296 -297 0
296 -298 0
-296 297 298 0
299 296 0
-299 -296 0
-300 293 0
-300 228 0
300 -293 -228 0
301 300 0
-301 -300 0
302 301 0
-302 -301 0
303 295 0
-303 -295 0
304 299 0
-304 -299 0
305 302 0
-305 -302 0
306 -307 0
306 -308 0
-306 307 308 0
309 306 0
-309 -306 0
66 303 0
-66 -303 0
310 304 0
-310 -304 0
72 305 0
-72 -305 0
70 309 0
-70 -309 0
311 310 0
-311 -310 0
312 311 0
-312 -311 0
-39 312 0
-39 313 0
39 -312 -313 0
314 39 0
-314 -39 0
315 314 0
-315 -314 0
316 315 0
-316 -315 0
317 316 0
-317 -316 0
318 317 0
-318 -317 0
319 318 0
-319 -318 0
320 319 0
-320 -319 0
321 320 0
-321 -320 0
-322 321 0
-322 158 0
322 -321 -158 0
323 322 0
-323 -322 0
324 322 0
-324 -322 0
-325 326 0
-325 170 0
325 -326 -170 0
327 325 0
-327 -325 0
328 325 0
-328 -325 0
329 323 0
-329 -323 0
330 324 0
-330 -324 0
331 327 0
-331 -327 0
332 328 0
-332 -328 0
333 329 0
-333 -329 0
61 331 0
-61 -331 0
334 331 0
-334 -331 0
335 333 0
-335 -333 0
-41 330 0
-41 336 0
41 -330 -336 0
-337 338 0
-337 59 0
337 -338 -59 0
90 337 0
-90 -337 0
-43 332 0
-43 339 0
43 -332 -339 0
340 335 0
-340 -335 0
-341 342 0
-341 59 0
341 -342 -59 0
88 341 0
-88 -341 0
343 -344 0
343 -345 0
-343 344 345 0
346 343 0
-346 -343 0
-347 340 0
-347 226 0
347 -340 -226 0
348 347 0
-348 -347 0
349 348 0
-349 -348 0
350 346 0
-350 -346 0
351 349 0
-351 -349 0
352 -353 0
352 -354 0
-352 353 354 0
355 352 0
-355 -352 0
356 350 0
-356 -350 0
45 351 0
-45 -351 0
68 355 0
-68 -355 0
357 356 0
-357 -356 0
358 357 0
-358 -357 0
-47 358 0
-47 359 0
47 -358 -359 0
360 47 0
-360 -47 0
361 360 0
-361 -360 0
362 361 0
-362 -361 0
363 362 0
-363 -362 0
364 363 0
-364 -363 0
365 364 0
-365 -364 0
366 365 0
-366 -365 0
367 366 0
-367 -366 0
-368 367 0
-368 164 0
368 -367 -164 0
369 368 0
-369 -368 0
370 368 0
-370 -368 0
-371 372 0
-371 166 0
371 -372 -166 0
373 371 0
-373 -371 0
374 371 0
-374 -371 0
375 369 0
-375 -369 0
376 370 0
-376 -370 0
377 373 0
-377 -373 0
378 374 0
-378 -374 0
379 375 0
-379 -375 0
56 377 0
-56 -377 0
380 377 0
-380 -377 0
381 379 0
-381 -379 0
-49 376 0
-49 382 0
49 -376 -382 0
-51 378 0
-51 383 0
51 -378 -383 0
384 381 0
-384 -381 0
-385 386 0
-385 387 0
385 -386 -387 0
86 385 0
-86 -385 0
388 -389 0
388 -390 0
-388 389 390 0
78 388 0
-78 -388 0
-391 384 0
-391 230 0
391 -384 -230 0
392 391 0
-392 -391 0
393 392 0
-393 -392 0
394 -395 0
394 -396 0
-394 395 396 0
80 394 0
-80 -394 0
397 -398 0
397 -399 0
-397 398 399 0
82 397 0
-82 -397 0
400 -401 0
400 -402 0
-400 401 402 0
84 400 0
-84 -400 0
403 393 0
-403 -393 0
404 -405 0
404 -406 0
-404 405 406 0
407 404 0
-407 -404 0
408 -409 0
408 -410 0
-408 409 410 0
411 408 0
-411 -408 0
76 403 0
-76 -403 0
74 407 0
-74 -407 0
412 411 0
-412 -411 0
413 412 0
-413 -412 0
414 413 0
-414 -413 0
53 414 0
-53 -414 0
-415 96 0
-415 182 0
415 -96 -182 0
-416 96 0
-416 182 0
416 -96 -182 0
-417 96 0
-417 182 0
417 -96 -182 0
-418 96 0
-418 182 0
418 -96 -182 0
-419 420 0
-419 184 0
419 -420 -184 0
-421 422 0
-421 184 0
421 -422 -184 0
-298 423 0
-298 184 0
298 -423 -184 0
-219 424 0
-219 184 0
219 -424 -184 0
261 96 0
261 252 0
-261 -96 -252 0
272 96 0
272 255 0
-272 -96 -255 0
-425 426 0
-425 184 0
425 -426 -184 0
-427 63 0
-427 64 0
427 -63 -64 0
-428 148 0
-428 64 0
428 -148 -64 0
-429 430 0
-429 59 0
429 -430 -59 0
-431 432 0
-431 287 0
431 -432 -287 0
-433 63 0
-433 289 0
433 -63 -289 0
-434 289 0
-434 150 0
434 -289 -150 0
-435 436 0
-435 431 0
435 -436 -431 0
-307 293 0
-307 235 0
307 -293 -235 0
-308 253 0
-308 293 0
308 -253 -293 0
-437 438 0
-437 294 0
437 -438 -294 0
326 96 0
326 320 0
-326 -96 -320 0
-439 63 0
-439 331 0
439 -63 -331 0
-440 331 0
-440 151 0
440 -331 -151 0
-441 442 0
-441 59 0
441 -442 -59 0
-345 443 0
-345 437 0
345 -443 -437 0
-444 445 0
-444 335 0
444 -445 -335 0
-446 447 0
-446 182 0
446 -447 -182 0
-448 449 0
-448 444 0
448 -449 -444 0
-353 340 0
-353 234 0
353 -340 -234 0
-354 319 0
-354 340 0
354 -319 -340 0
372 96 0
372 366 0
-372 -96 -366 0
-450 63 0
-450 377 0
450 -63 -377 0
-451 377 0
-451 152 0
451 -377 -152 0
-387 452 0
-387 294 0
387 -452 -294 0
-453 454 0
-453 59 0
453 -454 -59 0
-455 456 0
-455 59 0
455 -456 -59 0
-457 458 0
-457 294 0
457 -458 -294 0
-459 460 0
-459 381 0
459 -460 -381 0
-390 461 0
-390 441 0
390 -461 -441 0
-462 463 0
-462 228 0
462 -463 -228 0
-396 464 0
-396 453 0
396 -464 -453 0
-399 465 0
-399 455 0
399 -465 -455 0
-402 466 0
-402 457 0
402 -466 -457 0
-467 468 0
-467 459 0
467 -468 -459 0
-469 462 0
-469 446 0
469 -462 -446 0
-405 384 0
-405 236 0
405 -384 -236 0
-406 365 0
-406 384 0
406 -365 -384 0
410 -470 0
410 -448 0
-410 470 448 0
-471 63 0
-471 289 0
471 -63 -289 0
-58 471 0
-58 334 0
58 -471 -334 0
-186 155 0
-186 156 0
186 -155 -156 0
214 -416 0
214 -421 0
-214 416 421 0
218 -418 0
218 -472 0
-218 418 472 0
297 -417 0
297 -429 0
-297 417 429 0
-338 63 0
-338 331 0
338 -63 -331 0
-473 63 0
-473 289 0
473 -63 -289 0
-342 473 0
-342 334 0
342 -473 -334 0
344 -415 0
344 -419 0
-344 415 419 0
-386 334 0
-386 59 0
386 -334 -59 0
389 -450 0
389 -451 0
-389 450 451 0
395 -433 0
395 -434 0
-395 433 434 0
398 -439 0
398 -440 0
-398 439 440 0
401 -427 0
401 -428 0
-401 427 428 0
474 -435 0
474 -425 0
-474 435 425 0
409 -474 0
409 -469 0
-409 474 469 0
-475 96 0
-475 180 0
475 -96 -180 0
-420 475 0
-420 181 0
420 -475 -181 0
-476 96 0
-476 180 0
476 -96 -180 0
-422 476 0
-422 154 0
422 -476 -154 0
-477 96 0
-477 153 0
477 -96 -153 0
-423 477 0
-423 181 0
423 -477 -181 0
-478 96 0
-478 153 0
478 -96 -153 0
-424 478 0
-424 154 0
424 -478 -154 0
-479 153 0
-479 154 0
479 -153 -154 0
-426 479 0
-426 281 0
426 -479 -281 0
-430 63 0
-430 480 0
430 -63 -480 0
-432 180 0
-432 154 0
432 -180 -154 0
-436 228 0
-436 184 0
436 -228 -184 0
-438 63 0
-438 481 0
438 -63 -481 0
-442 294 0
-442 334 0
442 -294 -334 0
-443 334 0
-443 59 0
443 -334 -59 0
-445 153 0
-445 181 0
445 -153 -181 0
-482 335 0
-482 226 0
482 -335 -226 0
-447 482 0
-447 281 0
447 -482 -281 0
-449 226 0
-449 184 0
449 -226 -184 0
-452 63 0
-452 377 0
452 -63 -377 0
-454 380 0
-454 334 0
454 -380 -334 0
-456 380 0
-456 294 0
456 -380 -294 0
-458 148 0
-458 380 0
458 -148 -380 0
-460 180 0
-460 181 0
460 -180 -181 0
-483 152 0
-483 381 0
483 -152 -381 0
-461 483 0
-461 230 0
461 -483 -230 0
-484 381 0
-484 230 0
484 -381 -230 0
-463 484 0
-463 287 0
463 -484 -287 0
-485 150 0
-485 287 0
485 -150 -287 0
-464 485 0
-464 228 0
464 -485 -228 0
-486 151 0
-486 335 0
486 -151 -335 0
-465 486 0
-465 226 0
465 -486 -226 0
-466 334 0
-466 281 0
466 -334 -281 0
-468 230 0
-468 184 0
468 -230 -184 0
470 -183 0
470 -467 0
-470 183 467 0
